TYPE : Vertex Cover
DIMENSION: 21
EDGE_DATA_SECTION:
0 1
0 3
0 4
0 5
0 7
0 12
0 13
0 16
0 18
1 7
1 9
1 17
2 12
2 17
2 19
3 15
3 20
4 9
4 11
5 7
5 10
5 11
5 20
6 7
6 9
6 10
6 13
6 16
7 15
7 19
8 10
8 17
9 10
9 13
9 14
9 19
12 16
13 17
13 20
14 19
15 19
17 20
18 20
19 20
-1
VERTEX_DEGREE:
9.0 4.0 3.0 3.0 3.0 5.0 5.0 6.0 2.0 7.0 4.0 2.0 3.0 5.0 2.0 3.0 3.0 5.0 2.0 6.0 6.0
VERTEX_COVER:
0 6 7 9 10 11 12 15 17 19 20
EOF
